CMD:
./solvers/bin/cadical --plain --no-reduce -t 1600 ./data/cnfs//oc8051gm12data/oc8051gm12data.58.cnf

c --- [ banner ] -------------------------------------------------------------
c 
c CaDiCaL SAT Solver
c Copyright (c) 2016-2024
c A. Biere, M. Fleury, N. Froleyks, K. Fazekas, F. Pollitt, T. Faller
c JKU Linz, University of Freiburg, TU Wien
c 
c Version 2.1.3 5296d3d2a9bf48c154ab2acb5e44625776d821bf
c g++ (Gentoo 12.3.1_p20230526 p2) 12.3.1 20230526 -Wall -Wextra -O3 -DNDEBUG
c Sat Aug 9 07:26:21 PDT 2025 Linux cedar2.int.cedar.computecanada.ca 5.14.0-362.24.2.el9_3.x86_64 x86_64
c 
c --- [ limit ] --------------------------------------------------------------
c 
c setting time limit to 1600 seconds real time (due to '-t 1600')
c 
c --- [ parsing input ] ------------------------------------------------------
c 
c reading DIMACS file from './data/cnfs//oc8051gm12data/oc8051gm12data.58.cnf'
c opening file to read './data/cnfs//oc8051gm12data/oc8051gm12data.58.cnf'
c found 'p cnf 668206 1945455' header
c parsed 1945455 clauses in 0.32 seconds process time
c 
c --- [ options ] ------------------------------------------------------------
c 
c   --compact=false                (different from default 'true')
c   --decompose=false              (different from default 'true')
c   --deduplicate=false            (different from default 'true')
c   --elim=false                   (different from default 'true')
c   --probe=false                  (different from default 'true')
c   --reduce=false                 (different from default 'true')
c   --subsume=false                (different from default 'true')
c   --ternary=false                (different from default 'true')
c   --transred=false               (different from default 'true')
c   --vivify=false                 (different from default 'true')
c 
c --- [ solving ] ------------------------------------------------------------
c 
c time measured in process time since initialization
c 
c  seconds   reductions  redundant   irredundant
c          MB    restarts       trail        variables
c           level   conflicts       glue           remaining
c 
c *  0.32 287  0 0   0    0    0  0% 0 1726326 538455 81%
c {  0.38 291  0 0   0    0    0  0% 0 1726326 538455 81%
c i  0.38 291  1 0   0    1    0 20% 0 1726326 537203 80%
c i  0.39 291  1 0   0    2    0 20% 0 1726326 537202 80%
c i  0.39 291  1 0   0    3    0 20% 0 1726326 537037 80%
c i  0.39 291  1 0   1    5    0 20% 0 1726326 536508 80%
c i  0.40 291 295 0   1   12    5 23% 1 1726326 536491 80%
c i  0.42 291 226 0   3   26   17 24% 2 1726326 536486 80%
c i  0.42 291 130 0   3   45   34 23% 2 1726326 536455 80%
c i  0.42 291 105 0   3   57   39 22% 2 1726326 536449 80%
c i  0.46 292 82 0   9   84   63 23% 3 1726326 536339 80%
c i  0.60 297 57 0  25  185  154 23% 4 1726326 536304 80%
c i  0.72 297 45 0  64  781  694 24% 3 1726326 536303 80%
c i  0.72 297 45 0  64  783  695 24% 3 1726326 536302 80%
c i  0.79 297 44 0  88  910  814 24% 4 1726326 536268 80%
c i  0.81 297 43 0 107  980  877 24% 4 1726326 536218 80%
c }  0.82 297 42 0 111 1000  894 24% 4 1726326 536218 80%
c [  0.82 297  0 0 111 1000  894  0% 0 1726326 536218 80%
c O  0.83 297 167 0 111 1002  896 28% 4 1726326 536218 80%
c i  0.91 298 12 0 111 1357 1213 23% 5 1726326 536202 80%
c 
c  seconds    reductions  redundant    irredundant
c          MB     restarts       trail         variables
c            level   conflicts       glue            remaining
c 
c i  2.80 300 229 0 112 2491 2286 47% 18 1726326 536201 80%
c i  2.87 300 225 0 112 2707 2495 51% 17 1726326 536200 80%
c ]  3.09 301 219 0 112 3001 2777 54% 19 1726326 536200 80%
c {  3.09 301 42 0 112 3001 2777 24% 4 1726326 536200 80%
c F  3.10 301 42 0 114 3005 2781 24% 4 1726326 536200 80%
c i  3.12 301 40 0 128 3064 2826 24% 4 1726326 536183 80%
c i  3.37 301 39 0 176 3769 3451 24% 4 1726326 536177 80%
c i  3.39 301 39 0 185 3803 3480 24% 4 1726326 536127 80%
c i  3.71 301 40 0 246 4381 4000 24% 4 1726326 536126 80%
c i  4.02 302 43 0 267 5096 4655 25% 4 1726326 536125 80%
c i  4.04 302 43 0 268 5099 4657 25% 4 1726326 536124 80%
c i  4.51 302 44 0 334 5441 4972 25% 4 1726326 536123 80%
c i  4.59 302 43 0 366 5627 5114 25% 4 1726326 536122 80%
c #  4.89 302 42 0 456 6007 5453 25% 4 1726326 536122 80%
c i  5.43 302 41 0 590 6714 6115 25% 4 1726326 536121 80%
c }  5.65 302 41 0 654 7001 6372 25% 4 1726326 536121 80%
c [  5.65 302 219 0 654 7001 6372 54% 19 1726326 536121 80%
c i  6.64 303 124 0 655 9200 8386 40% 12 1726326 536120 80%
c i  6.65 303 123 0 655 9212 8396 40% 12 1726326 536119 80%
c i  6.66 303 123 0 655 9223 8406 40% 12 1726326 536118 80%
c 
c  seconds    reductions  redundant    irredundant
c          MB     restarts       trail         variables
c            level   conflicts       glue            remaining
c 
c i  7.05 303 110 0 656 9890 9035 38% 13 1726326 536117 80%
c i  7.06 303 109 0 656 9907 9051 38% 13 1726326 536116 80%
c I  7.12 303 108 0 656 10008 9143 38% 13 1726326 536116 80%
c i  8.11 304 95 0 658 12426 11375 37% 13 1726326 536115 80%
... skipped 60 lines ...
c B 49.81 361 39 0 4116 66022 58128 26% 7 1522653 535753 80%
c i 50.91 361 40 0 4245 66906 58911 26% 7 1522653 535737 80%
c i 52.64 361 40 0 4446 68140 59954 26% 7 1522653 535720 80%
c i 58.27 361 38 0 5364 73338 64432 26% 7 1522653 535702 80%
c i 62.29 361 40 0 5865 77252 67820 26% 7 1522653 535552 80%
c W 63.62 363 39 0 6022 78023 60112 26% 8 1521704 535552 80%
c 
c  seconds   reductions     redundant   irredundant
c          MB    restarts          trail        variables
c           level     conflicts        glue           remaining
c 
c i 72.28 363 37 0 7258 86598 67298 26% 8 1521704 535551 80%
c i 72.28 363 37 0 7258 86601 67299 26% 8 1521704 535549 80%
c i 72.28 363 37 0 7258 86603 67299 26% 8 1521704 535547 80%
c i 72.28 363 37 0 7258 86604 67299 26% 8 1521704 535545 80%
c i 72.33 363 37 0 7258 86676 67363 26% 8 1521704 535544 80%
c i 72.33 363 37 0 7258 86678 67364 26% 8 1521704 535543 80%
c i 72.33 363 37 0 7258 86681 67365 26% 8 1521704 535541 80%
c i 72.33 363 37 0 7258 86682 67365 26% 8 1521704 535539 80%
c i 73.74 363 37 0 7394 88160 68428 26% 8 1521704 535488 80%
c # 76.75 363 38 0 7649 91024 70957 26% 8 1521704 535488 80%
c i 79.50 363 38 0 7924 93772 73393 27% 8 1521704 535378 80%
c i 82.40 363 37 0 8128 97118 75770 27% 8 1521704 535298 80%
c i 85.09 363 35 0 8428 100167 77902 26% 8 1521704 535218 80%
c B 89.26 363 35 0 8669 105025 82183 27% 8 1521704 535218 80%
c i 97.95 363 34 0 9187 114614 90037 27% 8 1521704 535138 80%
c i 99.48 363 34 0 9275 115953 91097 27% 8 1521704 535124 80%
c i 100.90 363 34 0 9387 117249 92160 27% 8 1521704 535123 80%
c W 103.60 365 33 0 9487 120026 78401 27% 8 1519787 535123 80%
c i 110.76 365 33 0 9998 125770 83057 27% 8 1519787 535108 80%
c } 112.09 365 33 0 10090 127008 84025 27% 8 1519787 535107 80%
c 
c  seconds    reductions       redundant    irredundant
c           MB     restarts           trail         variables
c            level      conflicts         glue            remaining
c 
c [ 112.09 365 71 0 10090 127008 84025 34% 13 1519787 535107 80%
c i 112.24 365 71 0 10090 127027 84042 34% 13 1519787 535027 80%
c B 120.45 365 61 0 10095 136027 92081 32% 12 1519787 535027 80%
c W 139.42 368 53 0 10100 153029 101780 31% 12 1519327 535027 80%
c i 147.15 368 49 0 10100 159350 105513 30% 12 1519327 534854 80%
c i 147.64 368 49 0 10100 159776 105712 30% 12 1519327 532906 80%
c i 147.65 368 49 0 10100 159813 105718 30% 12 1519327 530993 79%
c i 147.65 368 49 0 10100 159819 105720 30% 12 1519327 529955 79%
c ] 147.65 368 49 0 10100 159823 105721 30% 12 1519327 527737 79%
c 0 147.65 368 49 0 10100 159823 105721 30% 12 1519327 527737 79%
c 
c --- [ result ] -------------------------------------------------------------
c 
s UNSATISFIABLE
c 
c --- [ run-time profiling ] -------------------------------------------------
c 
c process time taken by individual solving procedures
c (percentage relative to process time for solving)
c 
c       147.34  100.00% search
c        82.23   55.81% unstable
c        62.66   42.53% stable
c         2.39    1.62% walk
c         0.32    0.21% parse
c         0.07    0.05% lucky
c         0.00    0.00% simplify
c   =================================
c       147.34   99.79% solve
c 
c last line shows process time for solving
c (percentage relative to total process time)
c 
c --- [ statistics ] ---------------------------------------------------------
c 
c chronological:             45914        28.73 %  of conflicts
c conflicts:                159823      1084.74    per second
c decisions:                572664      3886.76    per second
c fixed:                    140427        21.02 %  of all variables
c learned:                  154197        96.48 %  per conflict
c learned_lits:            6682692       100.00 %  learned literals
c minimized:                     0         0.00 %  learned literals
c shrunken:                1477858        22.11 %  learned literals
c minishrunken:            1378276        20.62 %  learned literals
c otfs:                        763         0.48 %  of conflict
c propagations:         1460681982         9.91 M  per second
c rephased:                     17      9401.35    interval
c restarts:                  10100        15.82    interval
c stabilizing:                   4        46.78 %  of conflicts
c subsumed:                  19144         1.02 %  of all clauses
c strengthened:                709         0.04 %  of all clauses
c walked:                        5     31964.60    interval
c 
c seconds are measured in process time for solving
c 
c --- [ resources ] ----------------------------------------------------------
c 
c total process time since initialization:       147.65    seconds
c total real time since initialization:          148.17    seconds
c maximum resident set size of process:          425.15    MB
c 
c --- [ shutting down ] ------------------------------------------------------
c 
c exit 20
